NAME : kleinezf\2a3b4b.knd
COMMENT : 
TYPE : CVRP
DIMENSION : 201
EDGE_WEIGHT_TYPE : EUC_2D
CAPACITY : 10100
CAPACITY_VOL : 50
NODE_COORD_TYPE : TWOD_COORDS
NODE_COORD_SECTION
1 23452 56766
2 23544 58301
3 23544 58301
4 24207 55444
5 24389 55556
6 23055 55277
7 23142 55294
8 23618 55278
9 24931 56533
10 24438 55643
11 23138 55313
12 23994 55390
13 23610 55320
14 23407 55309
15 23174 55328
16 23922 55396
17 23922 55396
18 23760 55356
19 22957 55422
20 23347 55348
21 23761 55383
22 23307 55379
23 23628 55374
24 23984 55453
25 24498 57703
26 24582 55967
27 23142 55402
28 24816 56477
29 23487 55387
30 23487 55387
31 23852 55429
32 24665 56133
33 24469 55833
34 24425 57731
35 24825 56664
36 24144 55598
37 24291 55673
38 23585 55410
39 24407 55787
40 23769 55444
41 24727 57241
42 23987 55515
43 23079 55467
44 23950 55529
45 24284 55721
46 23191 55456
47 24477 55923
48 24477 55923
49 23665 55459
50 23503 55448
51 24486 55952
52 24753 56509
53 23973 55562
54 23007 55528
55 23214 55482
56 23476 55477
57 23714 55506
58 24359 55851
59 23147 55521
60 24092 55671
61 24396 57630
62 24110 55702
63 24204 55768
64 23735 55543
65 23379 55520
66 23237 55540
67 24509 56143
68 24025 55693
69 23573 55542
70 23503 55545
71 24675 56711
72 24134 55762
73 23101 55593
74 24191 55797
75 24014 57823
76 24088 55760
77 24308 55947
78 24172 55845
79 24308 57558
80 23407 55599
81 23176 55627
82 24377 56090
83 24363 56039
84 24363 56039
85 24546 56398
86 23237 55636
87 24398 56142
88 23716 55654
89 24190 55912
90 24190 55912
91 24353 56101
92 24353 56101
93 23220 55673
94 23353 55666
95 23353 55666
96 23652 57853
97 23374 55671
98 23765 55701
99 23359 55689
100 24127 55913
101 24095 55906
102 23588 55702
103 24172 55976
104 24478 56483
105 23854 55779
106 24061 55904
107 24478 56483
108 23657 55759
109 23555 55757
110 24269 56175
111 23842 57708
112 23913 55870
113 23571 55762
114 24274 56207
115 24233 56129
116 24233 56129
117 24274 56207
118 24382 57134
119 24249 56168
120 23574 55779
121 23818 55823
122 24172 56096
123 23274 55784
124 24245 56193
125 24398 57052
126 23592 55798
127 23483 55802
128 24050 55999
129 23301 55814
130 24009 55995
131 23779 55878
132 24229 56252
133 24229 56252
134 23255 55840
135 24229 56252
136 24040 56043
137 23794 55901
138 23963 55999
139 24192 56220
140 24122 57390
141 24029 56076
142 24180 57250
143 24180 57250
144 23958 56055
145 23696 55920
146 23392 55909
147 23801 55970
148 24085 56185
149 23571 57619
150 24085 56185
151 23573 55936
152 24213 56389
153 23999 56163
154 23780 56048
155 23103 57463
156 23103 57463
157 23026 57407
158 24003 56220
159 24211 56866
160 23545 56018
161 24163 56989
162 23609 56050
163 23009 56209
164 24089 56450
165 23009 56209
166 23983 57233
167 23519 57459
168 23603 56093
169 23982 57190
170 23857 57232
171 23062 57227
172 23882 56399
173 22934 56545
174 23952 56975
175 23581 56249
176 23970 56822
177 23240 57257
178 23335 56253
179 23702 56303
180 23702 56303
181 23288 56294
182 23288 56294
183 23464 56272
184 23768 57110
185 23459 56310
186 23035 56801
187 23292 56452
188 23641 57033
189 23433 56448
190 23170 56687
191 23378 56531
192 23302 56572
193 23639 56889
194 23617 56925
195 23242 56753
196 23310 56622
197 23289 56817
198 23609 56729
199 23559 56703
200 23381 56740
201 23452 56766
DEMAND_SECTION
1 0 0
2 810 0
3 200 0
4 890 0
5 500 0
6 910 0
7 140 0
8 430 0
9 170 0
10 510 0
11 240 0
12 160 0
13 290 0
14 670 0
15 650 0
16 150 0
17 110 0
18 420 0
19 830 0
20 630 0
21 530 0
22 650 0
23 190 0
24 310 0
25 620 0
26 680 0
27 150 0
28 280 0
29 350 0
30 130 0
31 460 0
32 310 0
33 530 0
34 490 0
35 770 0
36 480 0
37 760 0
38 970 0
39 640 0
40 910 0
41 340 0
42 860 0
43 140 0
44 400 0
45 980 0
46 960 0
47 630 0
48 330 0
49 640 0
50 700 0
51 310 0
52 410 0
53 330 0
54 310 0
55 650 0
56 610 0
57 320 0
58 510 0
59 970 0
60 560 0
61 460 0
62 560 0
63 600 0
64 360 0
65 990 0
66 910 0
67 390 0
68 590 0
69 470 0
70 270 0
71 140 0
72 120 0
73 250 0
74 610 0
75 610 0
76 790 0
77 930 0
78 940 0
79 240 0
80 490 0
81 860 0
82 160 0
83 850 0
84 610 0
85 130 0
86 700 0
87 450 0
88 230 0
89 750 0
90 840 0
91 630 0
92 700 0
93 530 0
94 170 0
95 570 0
96 870 0
97 260 0
98 550 0
99 330 0
100 710 0
101 770 0
102 630 0
103 140 0
104 460 0
105 680 0
106 500 0
107 370 0
108 920 0
109 470 0
110 550 0
111 930 0
112 470 0
113 310 0
114 220 0
115 220 0
116 190 0
117 590 0
118 880 0
119 720 0
120 270 0
121 890 0
122 590 0
123 730 0
124 220 0
125 790 0
126 360 0
127 400 0
128 510 0
129 540 0
130 830 0
131 480 0
132 110 0
133 330 0
134 670 0
135 930 0
136 770 0
137 990 0
138 750 0
139 250 0
140 500 0
141 320 0
142 190 0
143 130 0
144 610 0
145 170 0
146 190 0
147 160 0
148 130 0
149 440 0
150 240 0
151 930 0
152 510 0
153 460 0
154 760 0
155 640 0
156 630 0
157 230 0
158 340 0
159 980 0
160 400 0
161 170 0
162 330 0
163 490 0
164 570 0
165 920 0
166 170 0
167 980 0
168 220 0
169 240 0
170 980 0
171 780 0
172 250 0
173 590 0
174 700 0
175 890 0
176 990 0
177 860 0
178 520 0
179 740 0
180 830 0
181 930 0
182 920 0
183 460 0
184 520 0
185 800 0
186 470 0
187 500 0
188 410 0
189 730 0
190 580 0
191 750 0
192 260 0
193 290 0
194 160 0
195 920 0
196 450 0
197 220 0
198 370 0
199 960 0
200 110 0
201 640 0
PICKUP_SECTION
1 0 0
2 0 0
3 470 0
4 890 0
5 0 0
6 0 0
7 0 0
8 890 0
9 780 0
10 250 0
11 370 0
12 700 0
13 0 0
14 0 0
15 960 0
16 0 0
17 0 0
18 690 0
19 0 0
20 0 0
21 0 0
22 580 0
23 0 0
24 350 0
25 0 0
26 0 0
27 320 0
28 150 0
29 350 0
30 660 0
31 170 0
32 260 0
33 0 0
34 800 0
35 0 0
36 700 0
37 0 0
38 0 0
39 0 0
40 350 0
41 530 0
42 930 0
43 460 0
44 540 0
45 0 0
46 580 0
47 0 0
48 920 0
49 0 0
50 790 0
51 130 0
52 160 0
53 720 0
54 230 0
55 910 0
56 700 0
57 490 0
58 450 0
59 0 0
60 0 0
61 140 0
62 470 0
63 0 0
64 860 0
65 0 0
66 0 0
67 850 0
68 450 0
69 0 0
70 360 0
71 0 0
72 960 0
73 900 0
74 220 0
75 950 0
76 0 0
77 660 0
78 510 0
79 0 0
80 0 0
81 0 0
82 0 0
83 940 0
84 490 0
85 0 0
86 0 0
87 130 0
88 0 0
89 610 0
90 0 0
91 0 0
92 660 0
93 660 0
94 270 0
95 230 0
96 0 0
97 0 0
98 240 0
99 270 0
100 710 0
101 980 0
102 0 0
103 450 0
104 0 0
105 820 0
106 0 0
107 0 0
108 480 0
109 0 0
110 0 0
111 790 0
112 0 0
113 0 0
114 0 0
115 0 0
116 290 0
117 180 0
118 820 0
119 310 0
120 270 0
121 270 0
122 0 0
123 0 0
124 120 0
125 0 0
126 0 0
127 0 0
128 0 0
129 800 0
130 0 0
131 540 0
132 300 0
133 0 0
134 870 0
135 260 0
136 790 0
137 360 0
138 600 0
139 0 0
140 120 0
141 950 0
142 870 0
143 920 0
144 590 0
145 730 0
146 0 0
147 0 0
148 0 0
149 0 0
150 0 0
151 0 0
152 310 0
153 0 0
154 890 0
155 610 0
156 0 0
157 0 0
158 0 0
159 0 0
160 0 0
161 0 0
162 840 0
163 0 0
164 710 0
165 0 0
166 440 0
167 0 0
168 370 0
169 310 0
170 0 0
171 460 0
172 560 0
173 460 0
174 0 0
175 0 0
176 730 0
177 290 0
178 650 0
179 0 0
180 0 0
181 0 0
182 0 0
183 650 0
184 740 0
185 760 0
186 0 0
187 770 0
188 0 0
189 0 0
190 580 0
191 0 0
192 870 0
193 440 0
194 0 0
195 0 0
196 0 0
197 0 0
198 420 0
199 0 0
200 300 0
201 0 0
TIME_WINDOW_SECTION
2  7:00 18:00
3  7:00 18:00
4  7:00 18:00
5  7:00 18:00
6  7:00 18:00
7  7:00 18:00
8  7:00 18:00
9  7:00 18:00
10  7:00 18:00
11  7:00 18:00
12  7:00 18:00
13  7:00 18:00
14  7:00 18:00
15  7:00 18:00
16  7:00 18:00
17  7:00 18:00
18  7:00 18:00
19  7:00 18:00
20  7:00 18:00
21  7:00 18:00
22  7:00 18:00
23  7:00 18:00
24  7:00 18:00
25  7:00 18:00
26  7:00 18:00
27  7:00 18:00
28  7:00 18:00
29  7:00 18:00
30  7:00 18:00
31  7:00 18:00
32  7:00 18:00
33  7:00 18:00
34  7:00 18:00
35  7:00 18:00
36  7:00 18:00
37  7:00 18:00
38  7:00 18:00
39  7:00 18:00
40  7:00 18:00
41  7:00 18:00
42  7:00 18:00
43  7:00 18:00
44  7:00 18:00
45  7:00 18:00
46  7:00 18:00
47  7:00 18:00
48  7:00 18:00
49  7:00 18:00
50  7:00 18:00
51  7:00 18:00
52  7:00 18:00
53  7:00 18:00
54  7:00 18:00
55  7:00 18:00
56  7:00 18:00
57  7:00 18:00
58  7:00 18:00
59  7:00 18:00
60  7:00 18:00
61  7:00 18:00
62  7:00 18:00
63  7:00 18:00
64  7:00 18:00
65  7:00 18:00
66  7:00 18:00
67  7:00 18:00
68  7:00 18:00
69  7:00 18:00
70  7:00 18:00
71  7:00 18:00
72  7:00 18:00
73  7:00 18:00
74  7:00 18:00
75  7:00 18:00
76  7:00 18:00
77  7:00 18:00
78  7:00 18:00
79  7:00 18:00
80  7:00 18:00
81  7:00 18:00
82  7:00 18:00
83  7:00 18:00
84  7:00 18:00
85  7:00 18:00
86  7:00 18:00
87  7:00 18:00
88  7:00 18:00
89  7:00 18:00
90  7:00 18:00
91  7:00 18:00
92  7:00 18:00
93  7:00 18:00
94  7:00 18:00
95  7:00 18:00
96  7:00 18:00
97  7:00 18:00
98  7:00 18:00
99  7:00 18:00
100  7:00 18:00
101  7:00 18:00
102  7:00 18:00
103  7:00 18:00
104  7:00 18:00
105  7:00 18:00
106  7:00 18:00
107  7:00 18:00
108  7:00 18:00
109  7:00 18:00
110  7:00 18:00
111  7:00 18:00
112  7:00 18:00
113  7:00 18:00
114  7:00 18:00
115  7:00 18:00
116  7:00 18:00
117  7:00 18:00
118  7:00 18:00
119  7:00 18:00
120  7:00 18:00
121  7:00 18:00
122  7:00 18:00
123  7:00 18:00
124  7:00 18:00
125  7:00 18:00
126  7:00 18:00
127  7:00 18:00
128  7:00 18:00
129  7:00 18:00
130  7:00 18:00
131  7:00 18:00
132  7:00 18:00
133  7:00 18:00
134  7:00 18:00
135  7:00 18:00
136  7:00 18:00
137  7:00 18:00
138  7:00 18:00
139  7:00 18:00
140  7:00 18:00
141  7:00 18:00
142  7:00 18:00
143  7:00 18:00
144  7:00 18:00
145  7:00 18:00
146  7:00 18:00
147  7:00 18:00
148  7:00 18:00
149  7:00 18:00
150  7:00 18:00
151  7:00 18:00
152  7:00 18:00
153  7:00 18:00
154  7:00 18:00
155  7:00 18:00
156  7:00 18:00
157  7:00 18:00
158  7:00 18:00
159  7:00 18:00
160  7:00 18:00
161  7:00 18:00
162  7:00 18:00
163  7:00 18:00
164  7:00 18:00
165  7:00 18:00
166  7:00 18:00
167  7:00 18:00
168  7:00 18:00
169  7:00 18:00
170  7:00 18:00
171  7:00 18:00
172  7:00 18:00
173  7:00 18:00
174  7:00 18:00
175  7:00 18:00
176  7:00 18:00
177  7:00 18:00
178  7:00 18:00
179  7:00 18:00
180  7:00 18:00
181  7:00 18:00
182  7:00 18:00
183  7:00 18:00
184  7:00 18:00
185  7:00 18:00
186  7:00 18:00
187  7:00 18:00
188  7:00 18:00
189  7:00 18:00
190  7:00 18:00
191  7:00 18:00
192  7:00 18:00
193  7:00 18:00
194  7:00 18:00
195  7:00 18:00
196  7:00 18:00
197  7:00 18:00
198  7:00 18:00
199  7:00 18:00
200  7:00 18:00
201  7:00 18:00
STANDTIME_SECTION
2 13
3 16
4 26
5 10
6 14
7 6
8 22
9 18
10 17
11 15
12 18
13 7
14 11
15 25
16 6
17 6
18 20
19 13
20 11
21 10
22 21
23 6
24 16
25 11
26 11
27 14
28 13
29 16
30 17
31 15
32 15
33 10
34 22
35 12
36 21
37 12
38 14
39 11
40 22
41 18
42 27
43 15
44 19
45 14
46 24
47 11
48 22
49 11
50 24
51 14
52 15
53 20
54 15
55 25
56 23
57 17
58 19
59 14
60 10
61 15
62 19
63 11
64 21
65 14
66 14
67 21
68 19
69 9
70 15
71 6
72 20
73 21
74 18
75 25
76 12
77 25
78 24
79 7
80 9
81 13
82 6
83 27
84 20
85 6
86 12
87 15
88 7
89 23
90 13
91 11
92 23
93 21
94 13
95 17
96 13
97 7
98 17
99 15
100 24
101 26
102 11
103 15
104 9
105 24
106 10
107 8
108 23
109 9
110 10
111 26
112 9
113 8
114 7
115 7
116 13
117 16
118 26
119 20
120 14
121 20
122 10
123 12
124 13
125 12
126 8
127 9
128 10
129 23
130 13
131 19
132 14
133 8
134 24
135 21
136 24
137 22
138 23
139 7
140 16
141 22
142 19
143 20
144 21
145 18
146 6
147 6
148 6
149 9
150 7
151 14
152 18
153 9
154 25
155 22
156 11
157 7
158 8
159 14
160 9
161 6
162 21
163 9
164 22
165 14
166 15
167 14
168 15
169 15
170 14
171 21
172 17
173 19
174 12
175 13
176 26
177 20
178 21
179 12
180 13
181 14
182 14
183 20
184 22
185 25
186 9
187 22
188 9
189 12
190 20
191 12
192 20
193 16
194 6
195 14
196 9
197 7
198 17
199 14
200 14
201 11
DEPOT_SECTION
1
-1
EOF
